; SPDX-License-Identifier: MPL-2.0
; Copyright (c) 2026 The RIINA Authors.
; Auto-generated from 02_FORMAL/coq/domains/U001_RuntimeGuardian.v (36 validations)
; Generated by scripts/generate-full-stack.py
;
; Translation Validation for U001_RuntimeGuardian
; Layer 9: Verifies compiler backend preserves formal semantics.
; Each assertion checks source IR ≡ target code for a proven property.

(set-logic QF_LIA)
(set-option :produce-models true)

; IR node representation
(declare-sort IRNode 0)
(declare-sort TargetNode 0)

; edge_source: source semantics (matches Coq)
(declare-fun source_edge_source () Bool)
(declare-fun target_edge_source () Bool)
(assert (= source_edge_source target_edge_source))

; edge_target: source semantics (matches Coq)
(declare-fun source_edge_target () Bool)
(declare-fun target_edge_target () Bool)
(assert (= source_edge_target target_edge_target))

; in_cfg: source semantics (matches Coq)
(declare-fun source_in_cfg () Bool)
(declare-fun target_in_cfg () Bool)
(assert (= source_in_cfg target_in_cfg))

; edge_in_cfg: source semantics (matches Coq)
(declare-fun source_edge_in_cfg () Bool)
(declare-fun target_edge_in_cfg () Bool)
(assert (= source_edge_in_cfg target_edge_in_cfg))

; cfg_wellformed: source semantics (matches Coq)
(declare-fun source_cfg_wellformed () Bool)
(declare-fun target_cfg_wellformed () Bool)
(assert (= source_cfg_wellformed target_cfg_wellformed))

; shadow_push: source semantics (matches Coq)
(declare-fun source_shadow_push () Bool)
(declare-fun target_shadow_push () Bool)
(assert (= source_shadow_push target_shadow_push))

; shadow_matches: source semantics (matches Coq)
(declare-fun source_shadow_matches () Bool)
(declare-fun target_shadow_matches () Bool)
(assert (= source_shadow_matches target_shadow_matches))

; compute_checksum: source semantics (matches Coq)
(declare-fun source_compute_checksum () Bool)
(declare-fun target_compute_checksum () Bool)
(assert (= source_compute_checksum target_compute_checksum))

; checksum_valid: source semantics (matches Coq)
(declare-fun source_checksum_valid () Bool)
(declare-fun target_checksum_valid () Bool)
(assert (= source_checksum_valid target_checksum_valid))

; protected_readonly: source semantics (matches Coq)
(declare-fun source_protected_readonly () Bool)
(declare-fun target_protected_readonly () Bool)
(assert (= source_protected_readonly target_protected_readonly))

; ecc_encode: source semantics (matches Coq)
(declare-fun source_ecc_encode () Bool)
(declare-fun target_ecc_encode () Bool)
(assert (= source_ecc_encode target_ecc_encode))

; ecc_decode: source semantics (matches Coq)
(declare-fun source_ecc_decode () Bool)
(declare-fun target_ecc_decode () Bool)
(assert (= source_ecc_decode target_ecc_decode))

; ecc_check: source semantics (matches Coq)
(declare-fun source_ecc_check () Bool)
(declare-fun target_ecc_check () Bool)
(assert (= source_ecc_check target_ecc_check))

; ecc_corrects_single_bit: source semantics (matches Coq)
(declare-fun source_ecc_corrects_single_bit () Bool)
(declare-fun target_ecc_corrects_single_bit () Bool)
(assert (= source_ecc_corrects_single_bit target_ecc_corrects_single_bit))

; ecc_detects_multi_bit: source semantics (matches Coq)
(declare-fun source_ecc_detects_multi_bit () Bool)
(declare-fun target_ecc_detects_multi_bit () Bool)
(assert (= source_ecc_detects_multi_bit target_ecc_detects_multi_bit))

; variants_independent: source semantics (matches Coq)
(declare-fun source_variants_independent () Bool)
(declare-fun target_variants_independent () Bool)
(assert (= source_variants_independent target_variants_independent))

; states_synchronized: source semantics (matches Coq)
(declare-fun source_states_synchronized () Bool)
(declare-fun target_states_synchronized () Bool)
(assert (= source_states_synchronized target_states_synchronized))

; divergence_detected: source semantics (matches Coq)
(declare-fun source_divergence_detected () Bool)
(declare-fun target_divergence_detected () Bool)
(assert (= source_divergence_detected target_divergence_detected))

; majority_vote: source semantics (matches Coq)
(declare-fun source_majority_vote () Bool)
(declare-fun target_majority_vote () Bool)
(assert (= source_majority_vote target_majority_vote))

; voting_correct: source semantics (matches Coq)
(declare-fun source_voting_correct () Bool)
(declare-fun target_voting_correct () Bool)
(assert (= source_voting_correct target_voting_correct))

; keys_zeroized: source semantics (matches Coq)
(declare-fun source_keys_zeroized () Bool)
(declare-fun target_keys_zeroized () Bool)
(assert (= source_keys_zeroized target_keys_zeroized))

; execution_halted: source semantics (matches Coq)
(declare-fun source_execution_halted () Bool)
(declare-fun target_execution_halted () Bool)
(assert (= source_execution_halted target_execution_halted))

; audit_logged: source semantics (matches Coq)
(declare-fun source_audit_logged () Bool)
(declare-fun target_audit_logged () Bool)
(assert (= source_audit_logged target_audit_logged))

; panic_state: source semantics (matches Coq)
(declare-fun source_panic_state () Bool)
(declare-fun target_panic_state () Bool)
(assert (= source_panic_state target_panic_state))

; trigger_panic: source semantics (matches Coq)
(declare-fun source_trigger_panic () Bool)
(declare-fun target_trigger_panic () Bool)
(assert (= source_trigger_panic target_trigger_panic))

; uses_nmi: source semantics (matches Coq)
(declare-fun source_uses_nmi () Bool)
(declare-fun target_uses_nmi () Bool)
(assert (= source_uses_nmi target_uses_nmi))

; monitor_checksum: source semantics (matches Coq)
(declare-fun source_monitor_checksum () Bool)
(declare-fun target_monitor_checksum () Bool)
(assert (= source_monitor_checksum target_monitor_checksum))

; verify_monitor_integrity: source semantics (matches Coq)
(declare-fun source_verify_monitor_integrity () Bool)
(declare-fun target_verify_monitor_integrity () Bool)
(assert (= source_verify_monitor_integrity target_verify_monitor_integrity))

; unprivileged_app: source semantics (matches Coq)
(declare-fun source_unprivileged_app () Bool)
(declare-fun target_unprivileged_app () Bool)
(assert (= source_unprivileged_app target_unprivileged_app))

; complete_mediation: source semantics (matches Coq)
(declare-fun source_complete_mediation () Bool)
(declare-fun target_complete_mediation () Bool)
(assert (= source_complete_mediation target_complete_mediation))

; tamper_evident: source semantics (matches Coq)
(declare-fun source_tamper_evident () Bool)
(declare-fun target_tamper_evident () Bool)
(assert (= source_tamper_evident target_tamper_evident))

; U_001_01_cfi_cfg_wellformed: translation preserves property (matches Coq: Theorem)
(declare-fun source_U_001_01_cfi_cfg_wellformed () Bool)
(declare-fun target_U_001_01_cfi_cfg_wellformed () Bool)
(assert (= source_U_001_01_cfi_cfg_wellformed target_U_001_01_cfi_cfg_wellformed))

; U_001_02_cfi_ip_in_cfg: translation preserves property (matches Coq: Theorem)
(declare-fun source_U_001_02_cfi_ip_in_cfg () Bool)
(declare-fun target_U_001_02_cfi_ip_in_cfg () Bool)
(assert (= source_U_001_02_cfi_ip_in_cfg target_U_001_02_cfi_ip_in_cfg))

; U_001_03_cfi_indirect_safe: translation preserves property (matches Coq: Theorem)
(declare-fun source_U_001_03_cfi_indirect_safe () Bool)
(declare-fun target_U_001_03_cfi_indirect_safe () Bool)
(assert (= source_U_001_03_cfi_indirect_safe target_U_001_03_cfi_indirect_safe))

; U_001_04_cfi_return_integrity: translation preserves property (matches Coq: Theorem)
(declare-fun source_U_001_04_cfi_return_integrity () Bool)
(declare-fun target_U_001_04_cfi_return_integrity () Bool)
(assert (= source_U_001_04_cfi_return_integrity target_U_001_04_cfi_return_integrity))

; U_001_05_cfi_call_integrity: translation preserves property (matches Coq: Theorem)
(declare-fun source_U_001_05_cfi_call_integrity () Bool)
(declare-fun target_U_001_05_cfi_call_integrity () Bool)
(assert (= source_U_001_05_cfi_call_integrity target_U_001_05_cfi_call_integrity))

; U_001_06_cfi_no_arbitrary_jump: translation preserves property (matches Coq: Theorem)
(declare-fun source_U_001_06_cfi_no_arbitrary_jump () Bool)
(declare-fun target_U_001_06_cfi_no_arbitrary_jump () Bool)
(assert (= source_U_001_06_cfi_no_arbitrary_jump target_U_001_06_cfi_no_arbitrary_jump))

; U_001_07_cfi_shadow_stack: translation preserves property (matches Coq: Theorem)
(declare-fun source_U_001_07_cfi_shadow_stack () Bool)
(declare-fun target_U_001_07_cfi_shadow_stack () Bool)
(assert (= source_U_001_07_cfi_shadow_stack target_U_001_07_cfi_shadow_stack))

; U_001_08_cfi_forward_edge: translation preserves property (matches Coq: Theorem)
(declare-fun source_U_001_08_cfi_forward_edge () Bool)
(declare-fun target_U_001_08_cfi_forward_edge () Bool)
(assert (= source_U_001_08_cfi_forward_edge target_U_001_08_cfi_forward_edge))

; U_001_09_cfi_backward_edge: translation preserves property (matches Coq: Theorem)
(declare-fun source_U_001_09_cfi_backward_edge () Bool)
(declare-fun target_U_001_09_cfi_backward_edge () Bool)
(assert (= source_U_001_09_cfi_backward_edge target_U_001_09_cfi_backward_edge))

; U_001_10_cfi_violation_detected: translation preserves property (matches Coq: Theorem)
(declare-fun source_U_001_10_cfi_violation_detected () Bool)
(declare-fun target_U_001_10_cfi_violation_detected () Bool)
(assert (= source_U_001_10_cfi_violation_detected target_U_001_10_cfi_violation_detected))

; U_001_11_mem_checksum_correct: translation preserves property (matches Coq: Theorem)
(declare-fun source_U_001_11_mem_checksum_correct () Bool)
(declare-fun target_U_001_11_mem_checksum_correct () Bool)
(assert (= source_U_001_11_mem_checksum_correct target_U_001_11_mem_checksum_correct))

; U_001_12_mem_redundant_storage: translation preserves property (matches Coq: Theorem)
(declare-fun source_U_001_12_mem_redundant_storage () Bool)
(declare-fun target_U_001_12_mem_redundant_storage () Bool)
(assert (= source_U_001_12_mem_redundant_storage target_U_001_12_mem_redundant_storage))

; U_001_13_mem_ecc_corrects: translation preserves property (matches Coq: Theorem)
(declare-fun source_U_001_13_mem_ecc_corrects () Bool)
(declare-fun target_U_001_13_mem_ecc_corrects () Bool)
(assert (= source_U_001_13_mem_ecc_corrects target_U_001_13_mem_ecc_corrects))

; double_even: translation preserves property (matches Coq: Lemma)
(declare-fun source_double_even () Bool)
(declare-fun target_double_even () Bool)
(assert (= source_double_even target_double_even))

; U_001_14_mem_ecc_detects: translation preserves property (matches Coq: Theorem)
(declare-fun source_U_001_14_mem_ecc_detects () Bool)
(declare-fun target_U_001_14_mem_ecc_detects () Bool)
(assert (= source_U_001_14_mem_ecc_detects target_U_001_14_mem_ecc_detects))

; U_001_15_mem_bounds_enforced: translation preserves property (matches Coq: Theorem)
(declare-fun source_U_001_15_mem_bounds_enforced () Bool)
(declare-fun target_U_001_15_mem_bounds_enforced () Bool)
(assert (= source_U_001_15_mem_bounds_enforced target_U_001_15_mem_bounds_enforced))

; U_001_16_mem_readonly_protected: translation preserves property (matches Coq: Theorem)
(declare-fun source_U_001_16_mem_readonly_protected () Bool)
(declare-fun target_U_001_16_mem_readonly_protected () Bool)
(assert (= source_U_001_16_mem_readonly_protected target_U_001_16_mem_readonly_protected))

; U_001_17_mem_kernel_isolated: translation preserves property (matches Coq: Theorem)
(declare-fun source_U_001_17_mem_kernel_isolated () Bool)
(declare-fun target_U_001_17_mem_kernel_isolated () Bool)
(assert (= source_U_001_17_mem_kernel_isolated target_U_001_17_mem_kernel_isolated))

; U_001_18_mem_corruption_detected: translation preserves property (matches Coq: Theorem)
(declare-fun source_U_001_18_mem_corruption_detected () Bool)
(declare-fun target_U_001_18_mem_corruption_detected () Bool)
(assert (= source_U_001_18_mem_corruption_detected target_U_001_18_mem_corruption_detected))

; U_001_19_nmr_variants_independent: translation preserves property (matches Coq: Theorem)
(declare-fun source_U_001_19_nmr_variants_independent () Bool)
(declare-fun target_U_001_19_nmr_variants_independent () Bool)
(assert (= source_U_001_19_nmr_variants_independent target_U_001_19_nmr_variants_independent))

; U_001_20_nmr_state_synchronized: translation preserves property (matches Coq: Theorem)
(declare-fun source_U_001_20_nmr_state_synchronized () Bool)
(declare-fun target_U_001_20_nmr_state_synchronized () Bool)
(assert (= source_U_001_20_nmr_state_synchronized target_U_001_20_nmr_state_synchronized))

; U_001_21_nmr_divergence_detected: translation preserves property (matches Coq: Theorem)
(declare-fun source_U_001_21_nmr_divergence_detected () Bool)
(declare-fun target_U_001_21_nmr_divergence_detected () Bool)
(assert (= source_U_001_21_nmr_divergence_detected target_U_001_21_nmr_divergence_detected))

; U_001_22_nmr_single_fault_tolerant: translation preserves property (matches Coq: Theorem)
(declare-fun source_U_001_22_nmr_single_fault_tolerant () Bool)
(declare-fun target_U_001_22_nmr_single_fault_tolerant () Bool)
(assert (= source_U_001_22_nmr_single_fault_tolerant target_U_001_22_nmr_single_fault_tolerant))

; U_001_23_nmr_voting_correct: translation preserves property (matches Coq: Theorem)
(declare-fun source_U_001_23_nmr_voting_correct () Bool)
(declare-fun target_U_001_23_nmr_voting_correct () Bool)
(assert (= source_U_001_23_nmr_voting_correct target_U_001_23_nmr_voting_correct))

; U_001_24_nmr_recovery_sound: translation preserves property (matches Coq: Theorem)
(declare-fun source_U_001_24_nmr_recovery_sound () Bool)
(declare-fun target_U_001_24_nmr_recovery_sound () Bool)
(assert (= source_U_001_24_nmr_recovery_sound target_U_001_24_nmr_recovery_sound))

; U_001_25_nmr_coverage: translation preserves property (matches Coq: Theorem)
(declare-fun source_U_001_25_nmr_coverage () Bool)
(declare-fun target_U_001_25_nmr_coverage () Bool)
(assert (= source_U_001_25_nmr_coverage target_U_001_25_nmr_coverage))

; U_001_26_panic_keys_zeroized: translation preserves property (matches Coq: Theorem)
(declare-fun source_U_001_26_panic_keys_zeroized () Bool)
(declare-fun target_U_001_26_panic_keys_zeroized () Bool)
(assert (= source_U_001_26_panic_keys_zeroized target_U_001_26_panic_keys_zeroized))

; U_001_27_panic_execution_halted: translation preserves property (matches Coq: Theorem)
(declare-fun source_U_001_27_panic_execution_halted () Bool)
(declare-fun target_U_001_27_panic_execution_halted () Bool)
(assert (= source_U_001_27_panic_execution_halted target_U_001_27_panic_execution_halted))

; U_001_28_panic_audit_logged: translation preserves property (matches Coq: Theorem)
(declare-fun source_U_001_28_panic_audit_logged () Bool)
(declare-fun target_U_001_28_panic_audit_logged () Bool)
(assert (= source_U_001_28_panic_audit_logged target_U_001_28_panic_audit_logged))

; U_001_29_panic_triggered: translation preserves property (matches Coq: Theorem)
(declare-fun source_U_001_29_panic_triggered () Bool)
(declare-fun target_U_001_29_panic_triggered () Bool)
(assert (= source_U_001_29_panic_triggered target_U_001_29_panic_triggered))

; U_001_30_panic_irreversible: translation preserves property (matches Coq: Theorem)
(declare-fun source_U_001_30_panic_irreversible () Bool)
(declare-fun target_U_001_30_panic_irreversible () Bool)
(assert (= source_U_001_30_panic_irreversible target_U_001_30_panic_irreversible))

; U_001_31_watchdog_nmi: translation preserves property (matches Coq: Theorem)
(declare-fun source_U_001_31_watchdog_nmi () Bool)
(declare-fun target_U_001_31_watchdog_nmi () Bool)
(assert (= source_U_001_31_watchdog_nmi target_U_001_31_watchdog_nmi))

; U_001_32_watchdog_monitor_integrity: translation preserves property (matches Coq: Theorem)
(declare-fun source_U_001_32_watchdog_monitor_integrity () Bool)
(declare-fun target_U_001_32_watchdog_monitor_integrity () Bool)
(assert (= source_U_001_32_watchdog_monitor_integrity target_U_001_32_watchdog_monitor_integrity))

; U_001_33_monitor_unprivileged: translation preserves property (matches Coq: Theorem)
(declare-fun source_U_001_33_monitor_unprivileged () Bool)
(declare-fun target_U_001_33_monitor_unprivileged () Bool)
(assert (= source_U_001_33_monitor_unprivileged target_U_001_33_monitor_unprivileged))

; U_001_34_monitor_complete_mediation: translation preserves property (matches Coq: Theorem)
(declare-fun source_U_001_34_monitor_complete_mediation () Bool)
(declare-fun target_U_001_34_monitor_complete_mediation () Bool)
(assert (= source_U_001_34_monitor_complete_mediation target_U_001_34_monitor_complete_mediation))

; U_001_35_monitor_tamper_evident: translation preserves property (matches Coq: Theorem)
(declare-fun source_U_001_35_monitor_tamper_evident () Bool)
(declare-fun target_U_001_35_monitor_tamper_evident () Bool)
(assert (= source_U_001_35_monitor_tamper_evident target_U_001_35_monitor_tamper_evident))

; Verify all translation validations are satisfiable
(check-sat)
(exit)
